(set-info :Origin "This instance was generated by: BanditFuzz-- an RL fuzzer for SMT solvers" )
(set-info :Author "Joe Scott, Fed Mora, Vijay Ganesh" )
(set-info :Contact "Joe Scott, joseph.scott@uwaterloo.ca")
(set-logic QF_BV)
(declare-const bool_0 Bool)
(declare-const bool_1 Bool)
(declare-const bool_2 Bool)
(declare-const bool_3 Bool)
(declare-const bool_4 Bool)
(declare-const bv_0 (_ BitVec 32))
(declare-const bv_1 (_ BitVec 32))
(declare-const bv_2 (_ BitVec 32))
(declare-const bv_3 (_ BitVec 32))
(declare-const bv_4 (_ BitVec 32))
(assert (bvsle (bvadd (bvadd bv_1 #x1a73cdfa ) (bvsmod #x9b4c5dd4  bv_4)) (bvnor (bvashr bv_0 #x1ba4616b ) (bvor #x4f6c77d5  #x3a35123a ))))
(assert (not (bvsge (bvxor #x06dbca27  #x9fade12c ) (bvsrem #x64b347ff  #x531924b8 ))))
(assert (bvsle (bvand (bvnand bv_2 #x00992f95 ) (bvadd #xa8d0195c  #x1636726e )) (bvnand (bvadd #xa545ab40  #x380ce264 ) (bvashr #x5a286587  #x116457f7 ))))
(assert (xor (xor (bvugt #x2330a6e5  #x3b77fdfd ) (=> bool_0 bool_1)) (or (bvsge #xd7e8ed1c  bv_3) (not true))))
(assert (bvugt (bvshl (bvnor bv_3 #x3fd70d48 ) (bvnor bv_0 bv_2)) (bvsdiv (bvmul #xa340f53e  #x898dc45c ) (bvashr bv_3 bv_0))))
(check-sat)
(exit)
